* #variable= 169 #constraint= 101 #soft= 64 mincost= 1 maxcost= 96 sumcost= 2924
****************************************
* begin normalizer comments
* category= PARTIAL-SMALLINT-LIN
* end normalizer comments
****************************************
soft: 2925 ;
-1 x1 -1 x2 -1 x3 -1 x4 -1 x5 -1 x6 -1 x7 -1 x8 -1 x9 -1 x10 -1 x11 -1 x12 -1 x13 >= -1 ;
[1] +1 x1 +1 x2 +1 x3 +1 x4 +1 x5 +1 x6 +1 x7 +1 x8 +1 x9 +1 x10 +1 x11 +1 x12 +1 x13 >= 1 ;
-1 x14 -1 x15 -1 x16 -1 x17 -1 x18 -1 x19 -1 x20 -1 x21 -1 x22 -1 x23 -1 x24 -1 x25 -1 x26 >= -1 ;
+1 x14 +1 x15 +1 x16 +1 x17 +1 x18 +1 x19 +1 x20 +1 x21 +1 x22 +1 x23 +1 x24 +1 x25 +1 x26 >= 1 ;
[11] -1 x27 -1 x28 -1 x29 -1 x30 -1 x31 -1 x32 -1 x33 -1 x34 -1 x35 -1 x36 -1 x37 -1 x38 -1 x39 >= -1 ;
[36] +1 x27 +1 x28 +1 x29 +1 x30 +1 x31 +1 x32 +1 x33 +1 x34 +1 x35 +1 x36 +1 x37 +1 x38 +1 x39 >= 1 ;
-1 x40 -1 x41 -1 x42 -1 x43 -1 x44 -1 x45 -1 x46 -1 x47 -1 x48 -1 x49 -1 x50 -1 x51 -1 x52 >= -1 ;
[4] +1 x40 +1 x41 +1 x42 +1 x43 +1 x44 +1 x45 +1 x46 +1 x47 +1 x48 +1 x49 +1 x50 +1 x51 +1 x52 >= 1 ;
-1 x53 -1 x54 -1 x55 -1 x56 -1 x57 -1 x58 -1 x59 -1 x60 -1 x61 -1 x62 -1 x63 -1 x64 -1 x65 >= -1 ;
[66] +1 x53 +1 x54 +1 x55 +1 x56 +1 x57 +1 x58 +1 x59 +1 x60 +1 x61 +1 x62 +1 x63 +1 x64 +1 x65 >= 1 ;
-1 x66 -1 x67 -1 x68 -1 x69 -1 x70 -1 x71 -1 x72 -1 x73 -1 x74 -1 x75 -1 x76 -1 x77 -1 x78 >= -1 ;
[7] +1 x66 +1 x67 +1 x68 +1 x69 +1 x70 +1 x71 +1 x72 +1 x73 +1 x74 +1 x75 +1 x76 +1 x77 +1 x78 >= 1 ;
[63] -1 x79 -1 x80 -1 x81 -1 x82 -1 x83 -1 x84 -1 x85 -1 x86 -1 x87 -1 x88 -1 x89 -1 x90 -1 x91 >= -1 ;
[89] +1 x79 +1 x80 +1 x81 +1 x82 +1 x83 +1 x84 +1 x85 +1 x86 +1 x87 +1 x88 +1 x89 +1 x90 +1 x91 >= 1 ;
[25] -1 x92 -1 x93 -1 x94 -1 x95 -1 x96 -1 x97 -1 x98 -1 x99 -1 x100 -1 x101 -1 x102 -1 x103 -1 x104 >= -1 ;
[49] +1 x92 +1 x93 +1 x94 +1 x95 +1 x96 +1 x97 +1 x98 +1 x99 +1 x100 +1 x101 +1 x102 +1 x103 +1 x104 >= 1 ;
-1 x105 -1 x106 -1 x107 -1 x108 -1 x109 -1 x110 -1 x111 -1 x112 -1 x113 -1 x114 -1 x115 -1 x116 -1 x117 >= -1 ;
+1 x105 +1 x106 +1 x107 +1 x108 +1 x109 +1 x110 +1 x111 +1 x112 +1 x113 +1 x114 +1 x115 +1 x116 +1 x117 >= 1 ;
[46] -1 x118 -1 x119 -1 x120 -1 x121 -1 x122 -1 x123 -1 x124 -1 x125 -1 x126 -1 x127 -1 x128 -1 x129 -1 x130 >= -1 ;
+1 x118 +1 x119 +1 x120 +1 x121 +1 x122 +1 x123 +1 x124 +1 x125 +1 x126 +1 x127 +1 x128 +1 x129 +1 x130 >= 1 ;
[53] -1 x131 -1 x132 -1 x133 -1 x134 -1 x135 -1 x136 -1 x137 -1 x138 -1 x139 -1 x140 -1 x141 -1 x142 -1 x143 >= -1 ;
[57] +1 x131 +1 x132 +1 x133 +1 x134 +1 x135 +1 x136 +1 x137 +1 x138 +1 x139 +1 x140 +1 x141 +1 x142 +1 x143 >= 1 ;
[39] -1 x144 -1 x145 -1 x146 -1 x147 -1 x148 -1 x149 -1 x150 -1 x151 -1 x152 -1 x153 -1 x154 -1 x155 -1 x156 >= -1 ;
+1 x144 +1 x145 +1 x146 +1 x147 +1 x148 +1 x149 +1 x150 +1 x151 +1 x152 +1 x153 +1 x154 +1 x155 +1 x156 >= 1 ;
[30] -1 x157 -1 x158 -1 x159 -1 x160 -1 x161 -1 x162 -1 x163 -1 x164 -1 x165 -1 x166 -1 x167 -1 x168 -1 x169 >= -1 ;
+1 x157 +1 x158 +1 x159 +1 x160 +1 x161 +1 x162 +1 x163 +1 x164 +1 x165 +1 x166 +1 x167 +1 x168 +1 x169 >= 1 ;
-1 x1 -1 x14 -1 x27 -1 x40 -1 x53 -1 x66 -1 x79 -1 x92 -1 x105 -1 x118 -1 x131 -1 x144 -1 x157 >= -1 ;
[74] +1 x1 +1 x14 +1 x27 +1 x40 +1 x53 +1 x66 +1 x79 +1 x92 +1 x105 +1 x118 +1 x131 +1 x144 +1 x157 >= 1 ;
[7] -1 x2 -1 x15 -1 x28 -1 x41 -1 x54 -1 x67 -1 x80 -1 x93 -1 x106 -1 x119 -1 x132 -1 x145 -1 x158 >= -1 ;
+1 x2 +1 x15 +1 x28 +1 x41 +1 x54 +1 x67 +1 x80 +1 x93 +1 x106 +1 x119 +1 x132 +1 x145 +1 x158 >= 1 ;
[69] -1 x3 -1 x16 -1 x29 -1 x42 -1 x55 -1 x68 -1 x81 -1 x94 -1 x107 -1 x120 -1 x133 -1 x146 -1 x159 >= -1 ;
+1 x3 +1 x16 +1 x29 +1 x42 +1 x55 +1 x68 +1 x81 +1 x94 +1 x107 +1 x120 +1 x133 +1 x146 +1 x159 >= 1 ;
-1 x4 -1 x17 -1 x30 -1 x43 -1 x56 -1 x69 -1 x82 -1 x95 -1 x108 -1 x121 -1 x134 -1 x147 -1 x160 >= -1 ;
[80] +1 x4 +1 x17 +1 x30 +1 x43 +1 x56 +1 x69 +1 x82 +1 x95 +1 x108 +1 x121 +1 x134 +1 x147 +1 x160 >= 1 ;
[19] -1 x5 -1 x18 -1 x31 -1 x44 -1 x57 -1 x70 -1 x83 -1 x96 -1 x109 -1 x122 -1 x135 -1 x148 -1 x161 >= -1 ;
[3] +1 x5 +1 x18 +1 x31 +1 x44 +1 x57 +1 x70 +1 x83 +1 x96 +1 x109 +1 x122 +1 x135 +1 x148 +1 x161 >= 1 ;
[8] -1 x6 -1 x19 -1 x32 -1 x45 -1 x58 -1 x71 -1 x84 -1 x97 -1 x110 -1 x123 -1 x136 -1 x149 -1 x162 >= -1 ;
[1] +1 x6 +1 x19 +1 x32 +1 x45 +1 x58 +1 x71 +1 x84 +1 x97 +1 x110 +1 x123 +1 x136 +1 x149 +1 x162 >= 1 ;
[56] -1 x7 -1 x20 -1 x33 -1 x46 -1 x59 -1 x72 -1 x85 -1 x98 -1 x111 -1 x124 -1 x137 -1 x150 -1 x163 >= -1 ;
[52] +1 x7 +1 x20 +1 x33 +1 x46 +1 x59 +1 x72 +1 x85 +1 x98 +1 x111 +1 x124 +1 x137 +1 x150 +1 x163 >= 1 ;
-1 x8 -1 x21 -1 x34 -1 x47 -1 x60 -1 x73 -1 x86 -1 x99 -1 x112 -1 x125 -1 x138 -1 x151 -1 x164 >= -1 ;
+1 x8 +1 x21 +1 x34 +1 x47 +1 x60 +1 x73 +1 x86 +1 x99 +1 x112 +1 x125 +1 x138 +1 x151 +1 x164 >= 1 ;
[96] -1 x9 -1 x22 -1 x35 -1 x48 -1 x61 -1 x74 -1 x87 -1 x100 -1 x113 -1 x126 -1 x139 -1 x152 -1 x165 >= -1 ;
[80] +1 x9 +1 x22 +1 x35 +1 x48 +1 x61 +1 x74 +1 x87 +1 x100 +1 x113 +1 x126 +1 x139 +1 x152 +1 x165 >= 1 ;
[91] -1 x10 -1 x23 -1 x36 -1 x49 -1 x62 -1 x75 -1 x88 -1 x101 -1 x114 -1 x127 -1 x140 -1 x153 -1 x166 >= -1 ;
[38] +1 x10 +1 x23 +1 x36 +1 x49 +1 x62 +1 x75 +1 x88 +1 x101 +1 x114 +1 x127 +1 x140 +1 x153 +1 x166 >= 1 ;
[36] -1 x11 -1 x24 -1 x37 -1 x50 -1 x63 -1 x76 -1 x89 -1 x102 -1 x115 -1 x128 -1 x141 -1 x154 -1 x167 >= -1 ;
+1 x11 +1 x24 +1 x37 +1 x50 +1 x63 +1 x76 +1 x89 +1 x102 +1 x115 +1 x128 +1 x141 +1 x154 +1 x167 >= 1 ;
[60] -1 x12 -1 x25 -1 x38 -1 x51 -1 x64 -1 x77 -1 x90 -1 x103 -1 x116 -1 x129 -1 x142 -1 x155 -1 x168 >= -1 ;
+1 x12 +1 x25 +1 x38 +1 x51 +1 x64 +1 x77 +1 x90 +1 x103 +1 x116 +1 x129 +1 x142 +1 x155 +1 x168 >= 1 ;
[54] -1 x13 -1 x26 -1 x39 -1 x52 -1 x65 -1 x78 -1 x91 -1 x104 -1 x117 -1 x130 -1 x143 -1 x156 -1 x169 >= -1 ;
+1 x13 +1 x26 +1 x39 +1 x52 +1 x65 +1 x78 +1 x91 +1 x104 +1 x117 +1 x130 +1 x143 +1 x156 +1 x169 >= 1 ;
-1 x1 -1 x15 -1 x29 -1 x43 -1 x57 -1 x71 -1 x85 -1 x99 -1 x113 -1 x127 -1 x141 -1 x155 -1 x169 >= -1 ;
[20] -1 x14 -1 x28 -1 x42 -1 x56 -1 x70 -1 x84 -1 x98 -1 x112 -1 x126 -1 x140 -1 x154 -1 x168 >= -1 ;
-1 x27 -1 x41 -1 x55 -1 x69 -1 x83 -1 x97 -1 x111 -1 x125 -1 x139 -1 x153 -1 x167 >= -1 ;
[83] -1 x40 -1 x54 -1 x68 -1 x82 -1 x96 -1 x110 -1 x124 -1 x138 -1 x152 -1 x166 >= -1 ;
-1 x53 -1 x67 -1 x81 -1 x95 -1 x109 -1 x123 -1 x137 -1 x151 -1 x165 >= -1 ;
[91] -1 x66 -1 x80 -1 x94 -1 x108 -1 x122 -1 x136 -1 x150 -1 x164 >= -1 ;
[1] -1 x79 -1 x93 -1 x107 -1 x121 -1 x135 -1 x149 -1 x163 >= -1 ;
-1 x92 -1 x106 -1 x120 -1 x134 -1 x148 -1 x162 >= -1 ;
[9] -1 x105 -1 x119 -1 x133 -1 x147 -1 x161 >= -1 ;
[74] -1 x118 -1 x132 -1 x146 -1 x160 >= -1 ;
-1 x131 -1 x145 -1 x159 >= -1 ;
[37] -1 x144 -1 x158 >= -1 ;
-1 x14 -1 x2 >= -1 ;
[30] -1 x27 -1 x15 -1 x3 >= -1 ;
[51] -1 x40 -1 x28 -1 x16 -1 x4 >= -1 ;
[86] -1 x53 -1 x41 -1 x29 -1 x17 -1 x5 >= -1 ;
[81] -1 x66 -1 x54 -1 x42 -1 x30 -1 x18 -1 x6 >= -1 ;
[24] -1 x79 -1 x67 -1 x55 -1 x43 -1 x31 -1 x19 -1 x7 >= -1 ;
[18] -1 x92 -1 x80 -1 x68 -1 x56 -1 x44 -1 x32 -1 x20 -1 x8 >= -1 ;
[13] -1 x105 -1 x93 -1 x81 -1 x69 -1 x57 -1 x45 -1 x33 -1 x21 -1 x9 >= -1 ;
-1 x118 -1 x106 -1 x94 -1 x82 -1 x70 -1 x58 -1 x46 -1 x34 -1 x22 -1 x10 >= -1 ;
-1 x131 -1 x119 -1 x107 -1 x95 -1 x83 -1 x71 -1 x59 -1 x47 -1 x35 -1 x23 -1 x11 >= -1 ;
[15] -1 x144 -1 x132 -1 x120 -1 x108 -1 x96 -1 x84 -1 x72 -1 x60 -1 x48 -1 x36 -1 x24 -1 x12 >= -1 ;
-1 x157 -1 x145 -1 x133 -1 x121 -1 x109 -1 x97 -1 x85 -1 x73 -1 x61 -1 x49 -1 x37 -1 x25 -1 x13 >= -1 ;
[69] -1 x1 -1 x15 -1 x29 -1 x43 -1 x57 -1 x71 -1 x85 -1 x99 -1 x113 -1 x127 -1 x141 -1 x155 -1 x169 >= -1 ;
[95] -1 x2 -1 x16 -1 x30 -1 x44 -1 x58 -1 x72 -1 x86 -1 x100 -1 x114 -1 x128 -1 x142 -1 x156 >= -1 ;
[56] -1 x3 -1 x17 -1 x31 -1 x45 -1 x59 -1 x73 -1 x87 -1 x101 -1 x115 -1 x129 -1 x143 >= -1 ;
[24] -1 x4 -1 x18 -1 x32 -1 x46 -1 x60 -1 x74 -1 x88 -1 x102 -1 x116 -1 x130 >= -1 ;
[85] -1 x5 -1 x19 -1 x33 -1 x47 -1 x61 -1 x75 -1 x89 -1 x103 -1 x117 >= -1 ;
-1 x6 -1 x20 -1 x34 -1 x48 -1 x62 -1 x76 -1 x90 -1 x104 >= -1 ;
[1] -1 x7 -1 x21 -1 x35 -1 x49 -1 x63 -1 x77 -1 x91 >= -1 ;
[67] -1 x8 -1 x22 -1 x36 -1 x50 -1 x64 -1 x78 >= -1 ;
[65] -1 x9 -1 x23 -1 x37 -1 x51 -1 x65 >= -1 ;
[77] -1 x10 -1 x24 -1 x38 -1 x52 >= -1 ;
[86] -1 x11 -1 x25 -1 x39 >= -1 ;
[43] -1 x12 -1 x26 >= -1 ;
-1 x157 -1 x145 -1 x133 -1 x121 -1 x109 -1 x97 -1 x85 -1 x73 -1 x61 -1 x49 -1 x37 -1 x25 -1 x13 >= -1 ;
-1 x158 -1 x146 -1 x134 -1 x122 -1 x110 -1 x98 -1 x86 -1 x74 -1 x62 -1 x50 -1 x38 -1 x26 >= -1 ;
[83] -1 x159 -1 x147 -1 x135 -1 x123 -1 x111 -1 x99 -1 x87 -1 x75 -1 x63 -1 x51 -1 x39 >= -1 ;
[13] -1 x160 -1 x148 -1 x136 -1 x124 -1 x112 -1 x100 -1 x88 -1 x76 -1 x64 -1 x52 >= -1 ;
[6] -1 x161 -1 x149 -1 x137 -1 x125 -1 x113 -1 x101 -1 x89 -1 x77 -1 x65 >= -1 ;
-1 x162 -1 x150 -1 x138 -1 x126 -1 x114 -1 x102 -1 x90 -1 x78 >= -1 ;
-1 x163 -1 x151 -1 x139 -1 x127 -1 x115 -1 x103 -1 x91 >= -1 ;
-1 x164 -1 x152 -1 x140 -1 x128 -1 x116 -1 x104 >= -1 ;
-1 x165 -1 x153 -1 x141 -1 x129 -1 x117 >= -1 ;
[13] -1 x166 -1 x154 -1 x142 -1 x130 >= -1 ;
[54] -1 x167 -1 x155 -1 x143 >= -1 ;
[54] -1 x168 -1 x156 >= -1 ;
-7 x1 -6 x14 -11 x27 -5 x40 -8 x53 -6 x66 -6 x79 -6 x92 -12 x105 -5 x118 -4 x131 -12 x144 -7 x157 -10 x2 -6 x15 -1 x28 -2 x41 -10 x54 -3 x67 -13 x80 -4 x93 -6 x106 -12 x119 -1 x132 -9 x145 -13 x158 -6 x3 -4 x16 -8 x29 -7 x42 -4 x55 -12 x68 -7 x81 -5 x94 -2 x107 -4 x120 -11 x133 -2 x146 -1 x159 -7 x4 -6 x17 -12 x30 -6 x43 -7 x56 -9 x69 -4 x82 -10 x95 -7 x108 -11 x121 -9 x134 -5 x147 -11 x160 -11 x5 -8 x18 -3 x31 -2 x44 -5 x57 -6 x70 -7 x83 -11 x96 -11 x109 -13 x122 -2 x135 -6 x148 -7 x161 -5 x6 -4 x19 -1 x32 -11 x45 -7 x58 -13 x71 -10 x84 -2 x97 -6 x110 -5 x123 -4 x136 -9 x149 -3 x162 -10 x7 -2 x20 -5 x33 -1 x46 -3 x59 -3 x72 -9 x85 -5 x98 -7 x111 -4 x124 -4 x137 -7 x150 -12 x163 -2 x8 -3 x21 -11 x34 -5 x47 -6 x60 -6 x73 -2 x86 -10 x99 -11 x112 -12 x125 -4 x138 -8 x151 -10 x164 -3 x9 -11 x22 -2 x35 -2 x48 -12 x61 -2 x74 -11 x87 -8 x100 -3 x113 -4 x126 -13 x139 -1 x152 -9 x165 -7 x10 -7 x23 -1 x36 -12 x49 -8 x62 -7 x75 -1 x88 -1 x101 -9 x114 -12 x127 -13 x140 -1 x153 -13 x166 -13 x11 -3 x24 -12 x37 -4 x50 -9 x63 -11 x76 -7 x89 -3 x102 -12 x115 -10 x128 -2 x141 -3 x154 -9 x167 -4 x12 -12 x25 -2 x38 -7 x51 -8 x64 -4 x77 -1 x90 -8 x103 -10 x116 -3 x129 -6 x142 -3 x155 -4 x168 -9 x13 -8 x26 -7 x39 -12 x52 -7 x65 -9 x78 -10 x91 -10 x104 -3 x117 -5 x130 -8 x143 -7 x156 -11 x169 >= -38 ;
